c Created with the Wolfram Language : www.wolfram.com
c 
p edge 90 796
e 1 4
e 3 4
e 1 7
e 4 7
e 2 8
e 4 9
e 1 10
e 3 10
e 5 11
e 9 11
e 8 12
e 1 13
e 7 13
e 3 14
e 5 14
e 7 14
e 9 14
e 1 15
e 7 15
e 8 15
e 9 15
e 2 16
e 8 16
e 9 16
e 12 16
e 15 16
e 15 17
e 2 18
e 7 18
e 16 18
e 1 19
e 8 19
e 11 19
e 16 19
e 17 19
e 5 20
e 14 20
e 1 21
e 6 21
e 11 21
e 3 22
e 6 22
e 17 22
e 19 22
e 3 23
e 8 23
e 10 23
e 19 23
e 20 23
e 1 24
e 2 24
e 9 24
e 16 24
e 19 24
e 6 25
e 9 25
e 16 25
e 21 25
e 8 26
e 11 26
e 16 26
e 22 26
e 6 27
e 7 27
e 8 27
e 12 27
e 17 27
e 18 27
e 19 27
e 22 27
e 6 28
e 10 28
e 16 28
e 18 28
e 20 28
e 21 28
e 2 29
e 5 29
e 11 29
e 16 29
e 20 29
e 2 30
e 12 30
e 18 30
e 19 30
e 20 30
e 28 30
e 7 31
e 9 31
e 27 31
e 6 32
e 17 32
e 23 32
e 25 32
e 31 32
e 2 33
e 7 33
e 10 33
e 16 33
e 27 33
e 7 34
e 9 34
e 12 34
e 19 34
e 24 34
e 30 34
e 8 35
e 15 35
e 21 35
e 22 35
e 23 35
e 26 35
e 31 35
e 33 35
e 4 36
e 11 36
e 24 36
e 28 36
e 2 37
e 4 37
e 7 37
e 8 37
e 9 37
e 11 37
e 12 37
e 14 37
e 17 37
e 27 37
e 28 37
e 3 38
e 4 38
e 8 38
e 18 38
e 19 38
e 20 38
e 22 38
e 24 38
e 26 38
e 34 38
e 35 38
e 37 38
e 2 39
e 7 39
e 12 39
e 20 39
e 28 39
e 31 39
e 37 39
e 3 40
e 9 40
e 14 40
e 15 40
e 17 40
e 21 40
e 23 40
e 24 40
e 25 40
e 26 40
e 33 40
e 34 40
e 35 40
e 38 40
e 1 41
e 3 41
e 4 41
e 10 41
e 12 41
e 26 41
e 28 41
e 30 41
e 35 41
e 39 41
e 1 42
e 5 42
e 9 42
e 14 42
e 19 42
e 20 42
e 27 42
e 31 42
e 35 42
e 38 42
e 41 42
e 1 43
e 4 43
e 12 43
e 13 43
e 18 43
e 21 43
e 29 43
e 32 43
e 42 43
e 3 44
e 4 44
e 5 44
e 8 44
e 14 44
e 18 44
e 26 44
e 32 44
e 42 44
e 5 45
e 12 45
e 13 45
e 16 45
e 18 45
e 29 45
e 30 45
e 39 45
e 42 45
e 6 46
e 8 46
e 9 46
e 11 46
e 16 46
e 17 46
e 26 46
e 33 46
e 35 46
e 38 46
e 42 46
e 44 46
e 3 47
e 15 47
e 19 47
e 20 47
e 27 47
e 39 47
e 2 48
e 4 48
e 6 48
e 10 48
e 11 48
e 13 48
e 17 48
e 21 48
e 27 48
e 28 48
e 29 48
e 32 48
e 34 48
e 43 48
e 45 48
e 47 48
e 2 49
e 3 49
e 7 49
e 26 49
e 33 49
e 35 49
e 38 49
e 39 49
e 41 49
e 42 49
e 1 50
e 3 50
e 6 50
e 7 50
e 9 50
e 13 50
e 15 50
e 22 50
e 44 50
e 45 50
e 5 51
e 9 51
e 10 51
e 11 51
e 20 51
e 34 51
e 35 51
e 36 51
e 39 51
e 40 51
e 42 51
e 43 51
e 44 51
e 46 51
e 47 51
e 8 52
e 10 52
e 35 52
e 38 52
e 40 52
e 1 53
e 9 53
e 15 53
e 19 53
e 24 53
e 28 53
e 35 53
e 39 53
e 49 53
e 51 53
e 9 54
e 12 54
e 15 54
e 17 54
e 19 54
e 23 54
e 24 54
e 28 54
e 37 54
e 46 54
e 11 55
e 19 55
e 23 55
e 24 55
e 30 55
e 32 55
e 36 55
e 37 55
e 41 55
e 43 55
e 49 55
e 6 56
e 10 56
e 11 56
e 12 56
e 19 56
e 25 56
e 30 56
e 32 56
e 35 56
e 39 56
e 49 56
e 1 57
e 5 57
e 10 57
e 23 57
e 24 57
e 32 57
e 47 57
e 1 58
e 5 58
e 23 58
e 25 58
e 35 58
e 40 58
e 52 58
e 53 58
e 54 58
e 3 59
e 10 59
e 13 59
e 21 59
e 25 59
e 27 59
e 34 59
e 46 59
e 54 59
e 7 60
e 25 60
e 26 60
e 32 60
e 33 60
e 35 60
e 40 60
e 45 60
e 50 60
e 52 60
e 5 61
e 8 61
e 13 61
e 18 61
e 20 61
e 28 61
e 41 61
e 49 61
e 50 61
e 58 61
e 11 62
e 14 62
e 19 62
e 20 62
e 21 62
e 22 62
e 23 62
e 25 62
e 27 62
e 28 62
e 34 62
e 38 62
e 45 62
e 53 62
e 54 62
e 56 62
e 58 62
e 8 63
e 13 63
e 19 63
e 22 63
e 24 63
e 27 63
e 1 64
e 2 64
e 10 64
e 18 64
e 20 64
e 26 64
e 37 64
e 38 64
e 51 64
e 52 64
e 58 64
e 63 64
e 6 65
e 8 65
e 11 65
e 17 65
e 22 65
e 28 65
e 40 65
e 42 65
e 50 65
e 55 65
e 56 65
e 61 65
e 5 66
e 7 66
e 8 66
e 11 66
e 13 66
e 14 66
e 19 66
e 24 66
e 30 66
e 33 66
e 48 66
e 56 66
e 59 66
e 60 66
e 64 66
e 65 66
e 5 67
e 7 67
e 10 67
e 14 67
e 17 67
e 18 67
e 20 67
e 23 67
e 24 67
e 28 67
e 29 67
e 32 67
e 37 67
e 53 67
e 54 67
e 60 67
e 61 67
e 5 68
e 15 68
e 22 68
e 24 68
e 27 68
e 28 68
e 30 68
e 35 68
e 36 68
e 39 68
e 44 68
e 47 68
e 53 68
e 55 68
e 57 68
e 2 69
e 9 69
e 13 69
e 14 69
e 16 69
e 32 69
e 33 69
e 36 69
e 49 69
e 52 69
e 55 69
e 61 69
e 66 69
e 67 69
e 1 70
e 2 70
e 4 70
e 5 70
e 19 70
e 21 70
e 24 70
e 29 70
e 30 70
e 34 70
e 35 70
e 41 70
e 43 70
e 44 70
e 47 70
e 48 70
e 49 70
e 50 70
e 51 70
e 52 70
e 55 70
e 63 70
e 68 70
e 69 70
e 9 71
e 15 71
e 29 71
e 39 71
e 41 71
e 46 71
e 61 71
e 67 71
e 68 71
e 13 72
e 16 72
e 29 72
e 30 72
e 43 72
e 44 72
e 45 72
e 46 72
e 48 72
e 49 72
e 50 72
e 55 72
e 61 72
e 67 72
e 68 72
e 5 73
e 8 73
e 11 73
e 16 73
e 21 73
e 22 73
e 25 73
e 41 73
e 42 73
e 43 73
e 46 73
e 57 73
e 58 73
e 63 73
e 3 74
e 8 74
e 9 74
e 10 74
e 18 74
e 40 74
e 56 74
e 57 74
e 69 74
e 72 74
e 13 75
e 17 75
e 23 75
e 25 75
e 27 75
e 31 75
e 32 75
e 36 75
e 39 75
e 45 75
e 47 75
e 57 75
e 73 75
e 12 76
e 14 76
e 20 76
e 21 76
e 22 76
e 24 76
e 26 76
e 33 76
e 35 76
e 38 76
e 43 76
e 51 76
e 52 76
e 53 76
e 55 76
e 65 76
e 74 76
e 1 77
e 2 77
e 3 77
e 15 77
e 17 77
e 20 77
e 22 77
e 24 77
e 35 77
e 39 77
e 54 77
e 56 77
e 66 77
e 4 78
e 11 78
e 13 78
e 18 78
e 24 78
e 28 78
e 31 78
e 46 78
e 48 78
e 75 78
e 76 78
e 2 79
e 3 79
e 11 79
e 16 79
e 31 79
e 39 79
e 46 79
e 55 79
e 74 79
e 77 79
e 3 80
e 5 80
e 7 80
e 9 80
e 11 80
e 16 80
e 17 80
e 23 80
e 34 80
e 36 80
e 39 80
e 40 80
e 50 80
e 56 80
e 71 80
e 74 80
e 4 81
e 12 81
e 17 81
e 23 81
e 30 81
e 31 81
e 32 81
e 35 81
e 38 81
e 41 81
e 48 81
e 57 81
e 58 81
e 62 81
e 63 81
e 71 81
e 74 81
e 78 81
e 1 82
e 7 82
e 14 82
e 20 82
e 21 82
e 31 82
e 34 82
e 42 82
e 52 82
e 53 82
e 54 82
e 63 82
e 65 82
e 70 82
e 74 82
e 81 82
e 5 83
e 7 83
e 9 83
e 21 83
e 22 83
e 24 83
e 32 83
e 36 83
e 37 83
e 40 83
e 43 83
e 45 83
e 47 83
e 54 83
e 56 83
e 62 83
e 65 83
e 66 83
e 69 83
e 79 83
e 13 84
e 15 84
e 17 84
e 26 84
e 28 84
e 35 84
e 36 84
e 39 84
e 41 84
e 44 84
e 52 84
e 58 84
e 72 84
e 75 84
e 77 84
e 78 84
e 82 84
e 5 85
e 6 85
e 11 85
e 12 85
e 16 85
e 18 85
e 20 85
e 22 85
e 53 85
e 54 85
e 66 85
e 73 85
e 77 85
e 79 85
e 11 86
e 13 86
e 15 86
e 19 86
e 24 86
e 26 86
e 30 86
e 31 86
e 37 86
e 52 86
e 64 86
e 70 86
e 76 86
e 3 87
e 17 87
e 31 87
e 36 87
e 42 87
e 43 87
e 44 87
e 45 87
e 47 87
e 53 87
e 56 87
e 58 87
e 63 87
e 64 87
e 66 87
e 71 87
e 75 87
e 83 87
e 1 88
e 2 88
e 3 88
e 9 88
e 10 88
e 23 88
e 29 88
e 43 88
e 46 88
e 49 88
e 51 88
e 54 88
e 55 88
e 56 88
e 58 88
e 64 88
e 65 88
e 70 88
e 81 88
e 84 88
e 86 88
e 1 89
e 3 89
e 7 89
e 20 89
e 23 89
e 27 89
e 30 89
e 32 89
e 36 89
e 45 89
e 46 89
e 49 89
e 50 89
e 53 89
e 58 89
e 64 89
e 65 89
e 75 89
e 76 89
e 81 89
e 1 90
e 3 90
e 14 90
e 19 90
e 20 90
e 53 90
e 82 90
